
Welcome to IBM(R) ILOG(R) CPLEX(R) Interactive Optimizer 22.1.1.0
  with Simplex, Mixed Integer & Barrier Optimizers
5725-A06 5725-A29 5724-Y48 5724-Y49 5724-Y54 5724-Y55 5655-Y21
Copyright IBM Corp. 1988, 2022.  All Rights Reserved.

Type 'help' for a list of available commands.
Type 'help' followed by a command name for more
information on commands.

CPLEX> Selected objective sense:  MINIMIZE
Selected objective  name:  00000000
Selected RHS        name:  RHS1
Selected bound      name:  BOUND
Problem 'ee.mps' read.
Read time = 0.03 sec. (3.17 ticks)
CPLEX> New value for time limit in seconds: 7200
CPLEX> New value for parallel optimization mode: -1
CPLEX> New value for default parallel thread count: 40
CPLEX> New value for mixed integer optimality gap tolerance: 1e-13
CPLEX> Version identifier: 22.1.1.0 | 2022-11-28 | 9160aff4d
CPXPARAM_Threads                                 40
CPXPARAM_Parallel                                -1
CPXPARAM_TimeLimit                               7200
CPXPARAM_MIP_Tolerances_MIPGap                   1e-13
Found incumbent of value 0.000000 after 0.00 sec. (0.31 ticks)
Tried aggregator 2 times.
MIP Presolve eliminated 183 rows and 2745 columns.
MIP Presolve modified 6090 coefficients.
Aggregator did 713 substitutions.
Reduced MIP has 3636 rows, 7840 columns, and 28953 nonzeros.
Reduced MIP has 7840 binaries, 0 generals, 0 SOSs, and 0 indicators.
Presolve time = 0.07 sec. (69.13 ticks)
Probing time = 0.03 sec. (5.35 ticks)
Tried aggregator 1 time.
Detecting symmetries...
Reduced MIP has 3636 rows, 7840 columns, and 28953 nonzeros.
Reduced MIP has 7840 binaries, 0 generals, 0 SOSs, and 0 indicators.
Presolve time = 0.02 sec. (22.11 ticks)
Probing time = 0.02 sec. (5.13 ticks)
Clique table members: 18788.
MIP emphasis: balance optimality and feasibility.
MIP search method: dynamic search.
Parallel mode: opportunistic, using up to 40 threads.
Root relaxation solution time = 0.16 sec. (137.69 ticks)

        Nodes                                         Cuts/
   Node  Left     Objective  IInf  Best Integer    Best Bound    ItCnt     Gap

*     0+    0                            0.0000  -1.54000e+13              --- 
*     0+    0                      -6.99000e+12  -1.54000e+13           120.31%
      0     0  -1.53900e+13    77  -6.99000e+12  -1.53900e+13     2646  120.17%
*     0+    0                      -7.20000e+12  -1.53900e+13           113.75%
*     0+    0                      -1.53900e+13  -1.53900e+13             0.00%
      0     0  -1.53900e+13   169  -1.53900e+13      Cuts: 45     3044    0.00%
*     0+    0                      -1.53900e+13  -1.53900e+13             0.00%
      0     0  -1.53900e+13   240  -1.53900e+13      Cuts: 67     3208    0.00%
*     0+    0                      -1.53900e+13  -1.53900e+13             0.00%
*     0+    0                      -1.53900e+13  -1.53900e+13             0.00%
      0    37    infeasible        -1.53900e+13  -1.53900e+13    21496    0.00%
Elapsed time = 2.40 sec. (1103.48 ticks, tree = 0.02 MB, solutions = 15)
*    19+   33                      -1.53900e+13  -1.53900e+13             0.00%
    143    78    infeasible        -1.53900e+13  -1.53900e+13    33167    0.00%
    635   102  -1.53900e+13   157  -1.53900e+13  -1.53900e+13    39624    0.00%
   1364    77  -1.53900e+13   183  -1.53900e+13  -1.53900e+13    32314    0.00%
   2063   134  -1.53900e+13   185  -1.53900e+13  -1.53900e+13    57645    0.00%
   2566   309  -1.53900e+13   101  -1.53900e+13  -1.53900e+13   134375    0.00%
   3004   550  -1.53900e+13   139  -1.53900e+13  -1.53900e+13   263056    0.00%
   3422   334  -1.53900e+13   105  -1.53900e+13  -1.53900e+13   136961    0.00%
   3710   347        cutoff        -1.53900e+13  -1.53900e+13   157436    0.00%
   3921   390  -1.53900e+13   352  -1.53900e+13  -1.53900e+13   169152    0.00%
   5098   631  -1.53900e+13   172  -1.53900e+13  -1.53900e+13   374318    0.00%
Elapsed time = 8.93 sec. (4209.46 ticks, tree = 6.49 MB, solutions = 27)
   6499   855  -1.53900e+13   122  -1.53900e+13  -1.53900e+13   511898    0.00%
   8289  1080        cutoff        -1.53900e+13  -1.53900e+13   606241    0.00%
   9724  1309  -1.53900e+13   163  -1.53900e+13  -1.53900e+13   692053    0.00%
  10568  1644        cutoff        -1.53900e+13  -1.53900e+13   845479    0.00%
  11268  1802  -1.53900e+13   310  -1.53900e+13  -1.53900e+13   940674    0.00%
  11743  1805        cutoff        -1.53900e+13  -1.53900e+13  1087414    0.00%
  11949  2020  -1.53900e+13   159  -1.53900e+13  -1.53900e+13  1317263    0.00%

Performing restart 1

Repeating presolve.
Tried aggregator 2 times.
MIP Presolve eliminated 29 rows and 19 columns.
MIP Presolve modified 1865 coefficients.
Aggregator did 3 substitutions.
Reduced MIP has 3528 rows, 7818 columns, and 28285 nonzeros.
Reduced MIP has 7818 binaries, 0 generals, 0 SOSs, and 0 indicators.
Presolve time = 0.04 sec. (39.89 ticks)
Tried aggregator 2 times.
MIP Presolve eliminated 11 rows and 40 columns.
MIP Presolve modified 28 coefficients.
Aggregator did 16 substitutions.
Reduced MIP has 3501 rows, 7756 columns, and 28059 nonzeros.
Reduced MIP has 7756 binaries, 0 generals, 0 SOSs, and 0 indicators.
Presolve time = 0.06 sec. (54.32 ticks)
Represolve time = 0.22 sec. (151.24 ticks)
  12005     0  -1.53900e+13   223  -1.53900e+13  ZeroHalf: 13  1463807    0.00%
  12005     0  -1.53900e+13   186  -1.53900e+13      Cuts: 22  1463943    0.00%
  12005     0  -1.53900e+13   216  -1.53900e+13      Cuts: 14  1464081    0.00%
  12005     0  -1.53900e+13   256  -1.53900e+13  ZeroHalf: 21  1464227    0.00%
* 12005+    0                      -1.53900e+13  -1.53900e+13             0.00%
  12005     0  -1.53900e+13   228  -1.53900e+13      Cuts: 16  1464326    0.00%
  12005     0  -1.53900e+13   207  -1.53900e+13  ZeroHalf: 14  1464356    0.00%
  12005     0  -1.53900e+13   230  -1.53900e+13      Cuts: 18  1464370    0.00%
  12005    15        cutoff        -1.53900e+13  -1.53900e+13  1516992    0.00%
  12255    18  -1.53900e+13    45  -1.53900e+13  -1.53900e+13  1530723    0.00%
  12344    12  -1.53900e+13   292  -1.53900e+13  -1.53900e+13  1486646    0.00%
Elapsed time = 23.33 sec. (16764.30 ticks, tree = 0.05 MB, solutions = 28)
  12396    11  -1.53900e+13   273  -1.53900e+13  -1.53900e+13  1498195    0.00%
  12407    12  -1.53900e+13   342  -1.53900e+13  -1.53900e+13  1503190    0.00%

Clique cuts applied:  14
Cover cuts applied:  385
Mixed integer rounding cuts applied:  2
Zero-half cuts applied:  34
Lift and project cuts applied:  3
Gomory fractional cuts applied:  11

Root node processing (before b&c):
  Real time             =    1.31 sec. (1093.72 ticks)
Parallel b&c, 40 threads:
  Real time             =   22.06 sec. (18343.57 ticks)
  Sync time (average)   =    4.32 sec.
  Wait time (average)   =    0.10 sec.
                          ------------
Total (root+branch&cut) =   23.37 sec. (19437.29 ticks)

Solution pool: 28 solutions saved.

MIP - Integer optimal solution:  Objective = -1.5389998489e+13
Solution time =   23.52 sec.  Iterations = 1562611  Nodes = 12410
Deterministic time = 19437.32 ticks  (826.53 ticks/sec)

CPLEX> Solution 'p29' written to file 'ee.sol'.
CPLEX> 